% Auto-generated by scripts/generate_dzn.py
% problem_type   = regex
% instance       = regex_40
% source_json    = instances_json/2_high_blowup/regex_40.json
% blowup         = 25.375
% representation = DFA

mode = 0;

var_count = 29;
Q = 406;
S = 2;
q0 = 1;
F = {278, 279, 280, 281, 282, 283, 284, 285, 286, 287, 288, 289, 290, 291, 292, 293, 294, 295, 296, 297, 298, 299, 300, 301, 302, 303, 304, 305, 306, 307, 308, 309, 310, 311, 312, 313, 314, 315, 316, 317, 318, 319, 320, 321, 322, 323, 324, 325, 326, 327, 328, 329, 330, 331, 332, 333, 334, 335, 336, 337, 338, 339, 340, 341, 342, 343, 344, 345, 346, 347, 348, 349, 350, 351, 352, 353, 354, 355, 356, 357, 358, 359, 360, 361, 362, 363, 364, 365, 366, 367, 368, 369, 370, 371, 372, 373, 374, 375, 376, 377, 378, 379, 380, 381, 382, 383, 384, 385, 386, 387, 388, 389, 390, 391, 392, 393, 394, 395, 396, 397, 398, 399, 400, 401, 402, 403, 404, 405, 406};
d_dfa = array2d(1..406, 1..2, [
  1, 2,
  3, 2,
  4, 2,
  6, 5,
  8, 7,
  9, 7,
  11, 10,
  12, 10,
  13, 10,
  15, 14,
  16, 14,
  18, 17,
  19, 14,
  21, 20,
  22, 20,
  24, 23,
  26, 25,
  27, 25,
  28, 20,
  30, 29,
  31, 29,
  33, 32,
  35, 34,
  36, 34,
  38, 37,
  39, 37,
  40, 37,
  41, 29,
  43, 42,
  44, 42,
  46, 45,
  48, 47,
  49, 47,
  51, 50,
  52, 50,
  53, 50,
  55, 54,
  56, 54,
  58, 57,
  59, 54,
  60, 42,
  62, 61,
  63, 61,
  65, 64,
  67, 66,
  68, 66,
  70, 69,
  71, 69,
  72, 69,
  74, 73,
  75, 73,
  77, 76,
  78, 73,
  80, 79,
  81, 79,
  83, 82,
  85, 84,
  86, 84,
  87, 79,
  88, 61,
  90, 89,
  91, 89,
  93, 92,
  95, 94,
  96, 94,
  98, 97,
  99, 97,
  100, 97,
  102, 101,
  103, 101,
  105, 104,
  106, 101,
  108, 107,
  109, 107,
  111, 110,
  113, 112,
  114, 112,
  115, 107,
  117, 116,
  118, 116,
  120, 119,
  122, 121,
  123, 121,
  125, 124,
  126, 124,
  127, 124,
  128, 116,
  129, 89,
  131, 130,
  132, 130,
  134, 133,
  136, 135,
  137, 135,
  139, 138,
  140, 138,
  141, 138,
  143, 142,
  144, 142,
  146, 145,
  147, 142,
  149, 148,
  150, 148,
  152, 151,
  154, 153,
  155, 153,
  156, 148,
  158, 157,
  159, 157,
  161, 160,
  163, 162,
  164, 162,
  166, 165,
  167, 165,
  168, 165,
  169, 157,
  171, 170,
  172, 170,
  174, 173,
  176, 175,
  177, 175,
  179, 178,
  180, 178,
  181, 178,
  183, 182,
  184, 182,
  186, 185,
  187, 182,
  188, 170,
  189, 130,
  191, 190,
  192, 190,
  194, 193,
  196, 195,
  197, 195,
  199, 198,
  200, 198,
  201, 198,
  203, 202,
  204, 202,
  206, 205,
  207, 202,
  209, 208,
  210, 208,
  212, 211,
  214, 213,
  215, 213,
  216, 208,
  218, 217,
  219, 217,
  221, 220,
  223, 222,
  224, 222,
  226, 225,
  227, 225,
  228, 225,
  229, 217,
  231, 230,
  232, 230,
  234, 233,
  236, 235,
  237, 235,
  239, 238,
  240, 238,
  241, 238,
  243, 242,
  244, 242,
  246, 245,
  247, 242,
  248, 230,
  250, 249,
  251, 249,
  253, 252,
  255, 254,
  256, 254,
  258, 257,
  259, 257,
  260, 257,
  262, 261,
  263, 261,
  265, 264,
  266, 261,
  268, 267,
  269, 267,
  271, 270,
  273, 272,
  274, 272,
  275, 267,
  276, 249,
  277, 190,
  279, 278,
  280, 278,
  282, 281,
  284, 283,
  285, 283,
  287, 286,
  288, 286,
  289, 286,
  291, 290,
  292, 290,
  294, 293,
  295, 290,
  297, 296,
  298, 296,
  300, 299,
  302, 301,
  303, 301,
  304, 296,
  306, 305,
  307, 305,
  309, 308,
  311, 310,
  312, 310,
  314, 313,
  315, 313,
  316, 313,
  317, 305,
  319, 318,
  320, 318,
  322, 321,
  324, 323,
  325, 323,
  327, 326,
  328, 326,
  329, 326,
  331, 330,
  332, 330,
  334, 333,
  335, 330,
  336, 318,
  338, 337,
  339, 337,
  341, 340,
  343, 342,
  344, 342,
  346, 345,
  347, 345,
  348, 345,
  350, 349,
  351, 349,
  353, 352,
  354, 349,
  356, 355,
  357, 355,
  359, 358,
  361, 360,
  362, 360,
  363, 355,
  364, 337,
  366, 365,
  367, 365,
  369, 368,
  371, 370,
  372, 370,
  374, 373,
  375, 373,
  376, 373,
  378, 377,
  379, 377,
  381, 380,
  382, 377,
  384, 383,
  385, 383,
  387, 386,
  389, 388,
  390, 388,
  391, 383,
  393, 392,
  394, 392,
  396, 395,
  398, 397,
  399, 397,
  401, 400,
  402, 400,
  403, 400,
  404, 392,
  405, 365,
  406, 278,
  3, 2,
  4, 2,
  6, 5,
  8, 7,
  9, 7,
  11, 10,
  12, 10,
  13, 10,
  15, 14,
  16, 14,
  18, 17,
  19, 14,
  21, 20,
  22, 20,
  24, 23,
  26, 25,
  27, 25,
  28, 20,
  30, 29,
  31, 29,
  33, 32,
  35, 34,
  36, 34,
  38, 37,
  39, 37,
  40, 37,
  41, 29,
  43, 42,
  44, 42,
  46, 45,
  48, 47,
  49, 47,
  51, 50,
  52, 50,
  53, 50,
  55, 54,
  56, 54,
  58, 57,
  59, 54,
  60, 42,
  62, 61,
  63, 61,
  65, 64,
  67, 66,
  68, 66,
  70, 69,
  71, 69,
  72, 69,
  74, 73,
  75, 73,
  77, 76,
  78, 73,
  80, 79,
  81, 79,
  83, 82,
  85, 84,
  86, 84,
  87, 79,
  88, 61,
  90, 89,
  91, 89,
  93, 92,
  95, 94,
  96, 94,
  98, 97,
  99, 97,
  100, 97,
  102, 101,
  103, 101,
  105, 104,
  106, 101,
  108, 107,
  109, 107,
  111, 110,
  113, 112,
  114, 112,
  115, 107,
  117, 116,
  118, 116,
  120, 119,
  122, 121,
  123, 121,
  125, 124,
  126, 124,
  127, 124,
  128, 116,
  129, 89,
  131, 130,
  132, 130,
  134, 133,
  136, 135,
  137, 135,
  139, 138,
  140, 138,
  141, 138,
  143, 142,
  144, 142,
  146, 145,
  147, 142,
  149, 148,
  150, 148,
  152, 151,
  154, 153,
  155, 153,
  156, 148,
  158, 157,
  159, 157,
  161, 160,
  163, 162,
  164, 162,
  166, 165,
  167, 165,
  168, 165,
  169, 157,
  171, 170,
  172, 170,
  174, 173,
  176, 175,
  177, 175,
  179, 178,
  180, 178,
  181, 178,
  183, 182,
  184, 182,
  186, 185,
  187, 182,
  188, 170,
  189, 130,
  1, 2
]);
d_nfa = array2d(1..406, 1..2, [
  {}, {},
  {}, {},
  {}, {},
  {}, {},
  {}, {},
  {}, {},
  {}, {},
  {}, {},
  {}, {},
  {}, {},
  {}, {},
  {}, {},
  {}, {},
  {}, {},
  {}, {},
  {}, {},
  {}, {},
  {}, {},
  {}, {},
  {}, {},
  {}, {},
  {}, {},
  {}, {},
  {}, {},
  {}, {},
  {}, {},
  {}, {},
  {}, {},
  {}, {},
  {}, {},
  {}, {},
  {}, {},
  {}, {},
  {}, {},
  {}, {},
  {}, {},
  {}, {},
  {}, {},
  {}, {},
  {}, {},
  {}, {},
  {}, {},
  {}, {},
  {}, {},
  {}, {},
  {}, {},
  {}, {},
  {}, {},
  {}, {},
  {}, {},
  {}, {},
  {}, {},
  {}, {},
  {}, {},
  {}, {},
  {}, {},
  {}, {},
  {}, {},
  {}, {},
  {}, {},
  {}, {},
  {}, {},
  {}, {},
  {}, {},
  {}, {},
  {}, {},
  {}, {},
  {}, {},
  {}, {},
  {}, {},
  {}, {},
  {}, {},
  {}, {},
  {}, {},
  {}, {},
  {}, {},
  {}, {},
  {}, {},
  {}, {},
  {}, {},
  {}, {},
  {}, {},
  {}, {},
  {}, {},
  {}, {},
  {}, {},
  {}, {},
  {}, {},
  {}, {},
  {}, {},
  {}, {},
  {}, {},
  {}, {},
  {}, {},
  {}, {},
  {}, {},
  {}, {},
  {}, {},
  {}, {},
  {}, {},
  {}, {},
  {}, {},
  {}, {},
  {}, {},
  {}, {},
  {}, {},
  {}, {},
  {}, {},
  {}, {},
  {}, {},
  {}, {},
  {}, {},
  {}, {},
  {}, {},
  {}, {},
  {}, {},
  {}, {},
  {}, {},
  {}, {},
  {}, {},
  {}, {},
  {}, {},
  {}, {},
  {}, {},
  {}, {},
  {}, {},
  {}, {},
  {}, {},
  {}, {},
  {}, {},
  {}, {},
  {}, {},
  {}, {},
  {}, {},
  {}, {},
  {}, {},
  {}, {},
  {}, {},
  {}, {},
  {}, {},
  {}, {},
  {}, {},
  {}, {},
  {}, {},
  {}, {},
  {}, {},
  {}, {},
  {}, {},
  {}, {},
  {}, {},
  {}, {},
  {}, {},
  {}, {},
  {}, {},
  {}, {},
  {}, {},
  {}, {},
  {}, {},
  {}, {},
  {}, {},
  {}, {},
  {}, {},
  {}, {},
  {}, {},
  {}, {},
  {}, {},
  {}, {},
  {}, {},
  {}, {},
  {}, {},
  {}, {},
  {}, {},
  {}, {},
  {}, {},
  {}, {},
  {}, {},
  {}, {},
  {}, {},
  {}, {},
  {}, {},
  {}, {},
  {}, {},
  {}, {},
  {}, {},
  {}, {},
  {}, {},
  {}, {},
  {}, {},
  {}, {},
  {}, {},
  {}, {},
  {}, {},
  {}, {},
  {}, {},
  {}, {},
  {}, {},
  {}, {},
  {}, {},
  {}, {},
  {}, {},
  {}, {},
  {}, {},
  {}, {},
  {}, {},
  {}, {},
  {}, {},
  {}, {},
  {}, {},
  {}, {},
  {}, {},
  {}, {},
  {}, {},
  {}, {},
  {}, {},
  {}, {},
  {}, {},
  {}, {},
  {}, {},
  {}, {},
  {}, {},
  {}, {},
  {}, {},
  {}, {},
  {}, {},
  {}, {},
  {}, {},
  {}, {},
  {}, {},
  {}, {},
  {}, {},
  {}, {},
  {}, {},
  {}, {},
  {}, {},
  {}, {},
  {}, {},
  {}, {},
  {}, {},
  {}, {},
  {}, {},
  {}, {},
  {}, {},
  {}, {},
  {}, {},
  {}, {},
  {}, {},
  {}, {},
  {}, {},
  {}, {},
  {}, {},
  {}, {},
  {}, {},
  {}, {},
  {}, {},
  {}, {},
  {}, {},
  {}, {},
  {}, {},
  {}, {},
  {}, {},
  {}, {},
  {}, {},
  {}, {},
  {}, {},
  {}, {},
  {}, {},
  {}, {},
  {}, {},
  {}, {},
  {}, {},
  {}, {},
  {}, {},
  {}, {},
  {}, {},
  {}, {},
  {}, {},
  {}, {},
  {}, {},
  {}, {},
  {}, {},
  {}, {},
  {}, {},
  {}, {},
  {}, {},
  {}, {},
  {}, {},
  {}, {},
  {}, {},
  {}, {},
  {}, {},
  {}, {},
  {}, {},
  {}, {},
  {}, {},
  {}, {},
  {}, {},
  {}, {},
  {}, {},
  {}, {},
  {}, {},
  {}, {},
  {}, {},
  {}, {},
  {}, {},
  {}, {},
  {}, {},
  {}, {},
  {}, {},
  {}, {},
  {}, {},
  {}, {},
  {}, {},
  {}, {},
  {}, {},
  {}, {},
  {}, {},
  {}, {},
  {}, {},
  {}, {},
  {}, {},
  {}, {},
  {}, {},
  {}, {},
  {}, {},
  {}, {},
  {}, {},
  {}, {},
  {}, {},
  {}, {},
  {}, {},
  {}, {},
  {}, {},
  {}, {},
  {}, {},
  {}, {},
  {}, {},
  {}, {},
  {}, {},
  {}, {},
  {}, {},
  {}, {},
  {}, {},
  {}, {},
  {}, {},
  {}, {},
  {}, {},
  {}, {},
  {}, {},
  {}, {},
  {}, {},
  {}, {},
  {}, {},
  {}, {},
  {}, {},
  {}, {},
  {}, {},
  {}, {},
  {}, {},
  {}, {},
  {}, {},
  {}, {},
  {}, {},
  {}, {},
  {}, {},
  {}, {},
  {}, {},
  {}, {},
  {}, {},
  {}, {},
  {}, {},
  {}, {},
  {}, {},
  {}, {},
  {}, {},
  {}, {},
  {}, {},
  {}, {},
  {}, {},
  {}, {},
  {}, {},
  {}, {},
  {}, {},
  {}, {},
  {}, {},
  {}, {},
  {}, {},
  {}, {},
  {}, {},
  {}, {},
  {}, {},
  {}, {},
  {}, {},
  {}, {},
  {}, {},
  {}, {},
  {}, {},
  {}, {},
  {}, {},
  {}, {},
  {}, {},
  {}, {},
  {}, {},
  {}, {},
  {}, {},
  {}, {},
  {}, {}
]);
